proyfinal/src/viki/013/andrea/andrea-localstore/experimentInOfficeAgust.take6/worker_1/e9280696-f4d3-43da-89f9-f3f399d0a1ac.als.cnf.out
Reading from standard input... Use '--help' for help.
============================[ Problem Statistics ]=============================
|                                                                             |
|  Number of variables:         87638                                         |
|  Number of clauses:          161767                                         |
|  Parse time:                   0.03 s                                       |
|                                                                             |
============================[ Search Statistics ]==============================
| Conflicts |          ORIGINAL         |          LEARNT          | Progress |
|           |    Vars  Clauses Literals |    Limit  Clauses Lit/Cl |          |
===============================================================================
|       100 |   63192   108114   270179 |    39641      100     16 | 27.894 % |
|       250 |   63170   108022   269968 |    43605      249     28 | 27.919 % |
|       475 |   63170   108022   269968 |    47966      474     46 | 27.919 % |
|       812 |   63170   108022   269968 |    52763      811     54 | 27.919 % |
|      1318 |   63158   107960   269822 |    58039     1316     67 | 27.933 % |
|      2077 |   63157   107916   269732 |    63843     2072     70 | 27.934 % |
|      3216 |   63087   107630   269069 |    70227     3207     80 | 28.014 % |
|      4924 |   63087   107630   269069 |    77250     4915     86 | 28.014 % |
|      7486 |   63087   107630   269069 |    84975     7477    102 | 28.014 % |
|     11330 |   63087   107630   269069 |    93473    11321     93 | 28.014 % |
|     17096 |   63083   107614   269025 |   102820    17006     86 | 28.019 % |
===============================================================================
restarts              : 63
conflicts             : 17161          (6202 /sec)
decisions             : 60829          (0.00 % random) (21984 /sec)
propagations          : 26778712       (9677998 /sec)
conflict literals     : 1477056        (53.51 % deleted)
Memory used           : 42.32 MB
CPU time              : 2.76697 s

INDETERMINATE
